p cnf 79 236
6 0
11 0
16 0
21 0
12 0
17 0
22 0
18 0
23 0
24 0
-6 -12 11 0
-6 -17 16 0
-6 -22 21 0
-11 -8 6 0
-11 -18 16 0
-11 -23 21 0
-16 -9 6 0
-16 -14 11 0
-16 -24 21 0
-21 -10 6 0
-21 -15 11 0
-21 -20 16 0
-2 -11 12 0
-2 -16 17 0
-2 -21 22 0
-12 -3 2 0
-12 -18 17 0
-12 -23 22 0
-17 -4 2 0
-17 -14 12 0
-17 -24 22 0
-22 -5 2 0
-22 -15 12 0
-22 -20 17 0
-3 -6 8 0
-3 -16 18 0
-3 -21 23 0
-8 -2 3 0
-8 -17 18 0
-8 -22 23 0
-18 -4 3 0
-18 -9 8 0
-18 -24 23 0
-23 -5 3 0
-23 -10 8 0
-23 -20 18 0
-4 -6 9 0
-4 -11 14 0
-4 -21 24 0
-9 -2 4 0
-9 -12 14 0
-9 -22 24 0
-14 -3 4 0
-14 -8 9 0
-14 -23 24 0
-24 -5 4 0
-24 -10 9 0
-24 -15 14 0
-5 -6 10 0
-5 -11 15 0
-5 -16 20 0
-10 -2 5 0
-10 -12 15 0
-10 -17 20 0
-15 -3 5 0
-15 -8 10 0
-15 -18 20 0
-20 -4 5 0
-20 -9 10 0
-20 -14 15 0
-31 -37 36 0
-31 -42 41 0
-31 -47 46 0
-36 -33 31 0
-36 -43 41 0
-36 -48 46 0
-41 -34 31 0
-41 -39 36 0
-41 -49 46 0
-46 -35 31 0
-46 -40 36 0
-46 -45 41 0
-27 -36 37 0
-27 -41 42 0
-27 -46 47 0
-37 -28 27 0
-37 -43 42 0
-37 -48 47 0
-42 -29 27 0
-42 -39 37 0
-42 -49 47 0
-47 -30 27 0
-47 -40 37 0
-47 -45 42 0
-28 -31 33 0
-28 -41 43 0
-28 -46 48 0
-33 -27 28 0
-33 -42 43 0
-33 -47 48 0
-43 -29 28 0
-43 -34 33 0
-43 -49 48 0
-48 -30 28 0
-48 -35 33 0
-48 -45 43 0
-29 -31 34 0
-29 -36 39 0
-29 -46 49 0
-34 -27 29 0
-34 -37 39 0
-34 -47 49 0
-39 -28 29 0
-39 -33 34 0
-39 -48 49 0
-49 -30 29 0
-49 -35 34 0
-49 -40 39 0
-30 -31 35 0
-30 -36 40 0
-30 -41 45 0
-35 -27 30 0
-35 -37 40 0
-35 -42 45 0
-40 -28 30 0
-40 -33 35 0
-40 -43 45 0
-45 -29 30 0
-45 -34 35 0
-45 -39 40 0
6 2 0
-6 -2 0
11 3 0
-11 -3 0
16 4 0
-16 -4 0
21 5 0
-21 -5 0
2 6 0
-2 -6 0
12 8 0
-12 -8 0
17 9 0
-17 -9 0
22 10 0
-22 -10 0
3 11 0
-3 -11 0
8 12 0
-8 -12 0
18 14 0
-18 -14 0
23 15 0
-23 -15 0
4 16 0
-4 -16 0
9 17 0
-9 -17 0
14 18 0
-14 -18 0
24 20 0
-24 -20 0
5 21 0
-5 -21 0
10 22 0
-10 -22 0
15 23 0
-15 -23 0
20 24 0
-20 -24 0
31 27 0
-31 -27 0
36 28 0
-36 -28 0
41 29 0
-41 -29 0
46 30 0
-46 -30 0
27 31 0
-27 -31 0
37 33 0
-37 -33 0
42 34 0
-42 -34 0
47 35 0
-47 -35 0
28 36 0
-28 -36 0
33 37 0
-33 -37 0
43 39 0
-43 -39 0
48 40 0
-48 -40 0
29 41 0
-29 -41 0
34 42 0
-34 -42 0
39 43 0
-39 -43 0
49 45 0
-49 -45 0
30 46 0
-30 -46 0
35 47 0
-35 -47 0
40 48 0
-40 -48 0
45 49 0
-45 -49 0
76 0
77 0
-76 -6 -31 0
-76 6 31 0
-77 -24 -49 0
-77 24 49 0
-6 31 76 0
6 -31 76 0
-11 36 0
11 -36 0
-16 41 0
16 -41 0
-21 46 0
21 -46 0
-12 37 0
12 -37 0
-17 42 0
17 -42 0
-22 47 0
22 -47 0
-18 43 0
18 -43 0
-23 48 0
23 -48 0
-24 49 77 0
24 -49 77 0